NAME 
ROWS
 N  OBJ
 L  R0      
 L  R1      
 L  R2      
 E  R3      
 E  R4      
 E  R5      
 E  R6      
 E  R7      
 E  R8      
 E  R9      
 E  R10     
 E  R11     
 E  R12     
COLUMNS
    MARKER    'MARKER'                 'INTORG'
    I0(7)     OBJ       -113
    I0(7)     R0        148
    I0(7)     R1        44
    I0(7)     R2        131
    I0(7)     R3        12
    I0(7)     R6        1
    I0(7)     R7        8
    I0(7)     R12       1
    I1(5)     OBJ       -129
    I1(5)     R0        19
    I1(5)     R1        5
    I1(5)     R2        106
    I1(5)     R6        10
    I1(5)     R12       1
    I2(6)     OBJ       -8
    I2(6)     R0        92
    I2(6)     R1        10
    I2(6)     R2        77
    I2(6)     R4        7
    I2(6)     R6        8
    I2(6)     R12       1
    I3(6)     OBJ       51
    I3(6)     R0        -12
    I3(6)     R1        -44
    I3(6)     R2        82
    I3(6)     R3        10
    I3(6)     R7        18
    I3(6)     R12       1
    I4(7)     OBJ       150
    I4(7)     R0        98
    I4(7)     R1        13
    I4(7)     R2        -100
    I4(7)     R4        1
    I4(7)     R6        18
    I4(7)     R7        3
    I4(7)     R12       1
    MARKER    'MARKER'                 'INTEND'
    C5(8)     OBJ       -9
    C5(8)     R0        -1
    C5(8)     R2        -3
    C5(8)     R4        12
    C5(8)     R5        -1
    C5(8)     R7        7
    C5(8)     R8        12
    C5(8)     R9        13
    C5(8)     R11       15
    C6(9)     OBJ       -10
    C6(9)     R0        -6
    C6(9)     R1        4
    C6(9)     R2        6
    C6(9)     R4        8
    C6(9)     R5        16
    C6(9)     R8        6
    C6(9)     R9        19
    C6(9)     R10       19
    C6(9)     R11       1
    C7(11)    OBJ       3
    C7(11)    R0        8
    C7(11)    R1        -5
    C7(11)    R2        1
    C7(11)    R3        16
    C7(11)    R4        5
    C7(11)    R5        7
    C7(11)    R6        8
    C7(11)    R8        17
    C7(11)    R9        16
    C7(11)    R10       16
    C7(11)    R11       -1
    C8(10)    OBJ       -2
    C8(10)    R0        -1
    C8(10)    R1        2
    C8(10)    R2        7
    C8(10)    R3        4
    C8(10)    R5        7
    C8(10)    R6        5
    C8(10)    R7        12
    C8(10)    R8        -1
    C8(10)    R10       6
    C8(10)    R11       11
    C9(10)    OBJ       -1
    C9(10)    R0        8
    C9(10)    R1        1
    C9(10)    R2        -10
    C9(10)    R3        10
    C9(10)    R5        15
    C9(10)    R6        17
    C9(10)    R7        12
    C9(10)    R8        3
    C9(10)    R9        12
    C9(10)    R10       3
    C10(1)    R3        1
    C11(1)    R4        1
    C12(1)    R5        1
    C13(1)    R6        1
    C14(1)    R7        1
    C15(1)    R8        1
    C16(1)    R9        1
    C17(1)    R10       1
    C18(1)    R11       1
    C19(1)    R12       1
RHS
    RHS1      R0        -1.0325153374233132e+01
    RHS1      R1        2.8423312883435578e+01
    RHS1      R2        1.5089570552147237e+02
    RHS1      R3        81
    RHS1      R4        99
    RHS1      R5        88
    RHS1      R6        91
    RHS1      R7        60
    RHS1      R8        55
    RHS1      R9        99
    RHS1      R10       99
    RHS1      R11       74
    RHS1      R12       1
BOUNDS
 UP BND1      I0(7)     1
 UP BND1      I1(5)     1
 UP BND1      I2(6)     1
 UP BND1      I3(6)     1
 UP BND1      I4(7)     1
ENDATA
